75
1 0 6
2 0 2
2 1 9
3 0 4
3 1 10
3 2 3
4 0 8
4 1 4
4 2 4
4 3 4
5 0 8
5 1 1
5 2 7
5 3 1
5 4 1
6 0 1
6 1 4
6 2 6
6 3 6
6 4 1
6 5 1
7 0 7
7 1 8
7 2 5
7 3 4
7 4 10
7 5 4
7 6 3
8 0 8
8 1 9
8 2 10
8 3 6
8 4 7
8 5 3
8 6 7
8 7 4
9 0 2
9 1 3
9 2 8
9 3 3
9 4 2
9 5 4
9 6 6
9 7 10
9 8 9
10 0 1
10 1 3
10 2 5
10 3 5
10 4 6
10 5 6
10 6 5
10 7 2
10 8 2
10 9 8
11 0 2
11 1 9
11 2 6
11 3 6
11 4 6
11 5 8
11 6 7
11 7 10
11 8 4
11 9 8
11 10 10
12 0 10
12 1 5
12 2 6
12 3 7
12 4 4
12 5 4
12 6 9
12 7 6
12 8 5
12 9 5
12 10 4
12 11 7
13 0 8
13 1 7
13 2 2
13 3 7
13 4 8
13 5 8
13 6 1
13 7 6
13 8 2
13 9 7
13 10 8
13 11 1
13 12 1
14 0 3
14 1 8
14 2 7
14 3 4
14 4 4
14 5 7
14 6 1
14 7 3
14 8 2
14 9 10
14 10 10
14 11 9
14 12 9
14 13 3
15 0 9
15 1 6
15 2 3
15 3 6
15 4 3
15 5 3
15 6 10
15 7 9
15 8 5
15 9 7
15 10 4
15 11 9
15 12 3
15 13 1
15 14 5
16 0 1
16 1 3
16 2 1
16 3 4
16 4 10
16 5 6
16 6 5
16 7 4
16 8 8
16 9 10
16 10 6
16 11 7
16 12 2
16 13 7
16 14 8
16 15 9
17 0 6
17 1 6
17 2 8
17 3 2
17 4 9
17 5 5
17 6 5
17 7 4
17 8 1
17 9 8
17 10 1
17 11 3
17 12 9
17 13 7
17 14 1
17 15 7
17 16 3
18 0 8
18 1 10
18 2 8
18 3 8
18 4 7
18 5 10
18 6 3
18 7 9
18 8 3
18 9 9
18 10 10
18 11 5
18 12 8
18 13 4
18 14 3
18 15 9
18 16 6
18 17 7
19 0 3
19 1 5
19 2 9
19 3 1
19 4 8
19 5 9
19 6 8
19 7 6
19 8 3
19 9 1
19 10 1
19 11 4
19 12 5
19 13 3
19 14 7
19 15 3
19 16 6
19 17 6
19 18 9
20 0 6
20 1 7
20 2 6
20 3 2
20 4 9
20 5 7
20 6 6
20 7 6
20 8 7
20 9 9
20 10 2
20 11 8
20 12 5
20 13 1
20 14 10
20 15 7
20 16 8
20 17 2
20 18 9
20 19 5
21 0 5
21 1 2
21 2 2
21 3 9
21 4 4
21 5 10
21 6 2
21 7 3
21 8 5
21 9 8
21 10 9
21 11 10
21 12 9
21 13 4
21 14 5
21 15 5
21 16 6
21 17 7
21 18 9
21 19 5
21 20 6
22 0 8
22 1 6
22 2 9
22 3 8
22 4 7
22 5 10
22 6 1
22 7 9
22 8 8
22 9 5
22 10 2
22 11 1
22 12 7
22 13 2
22 14 7
22 15 9
22 16 7
22 17 6
22 18 5
22 19 5
22 20 6
22 21 10
23 0 10
23 1 10
23 2 5
23 3 3
23 4 8
23 5 2
23 6 8
23 7 4
23 8 1
23 9 3
23 10 4
23 11 3
23 12 8
23 13 2
23 14 7
23 15 6
23 16 5
23 17 1
23 18 1
23 19 1
23 20 7
23 21 6
23 22 9
24 0 8
24 1 7
24 2 10
24 3 4
24 4 3
24 5 8
24 6 8
24 7 2
24 8 8
24 9 9
24 10 10
24 11 4
24 12 8
24 13 8
24 14 5
24 15 4
24 16 3
24 17 7
24 18 1
24 19 4
24 20 2
24 21 4
24 22 5
24 23 9
25 0 6
25 1 7
25 2 9
25 3 1
25 4 9
25 5 3
25 6 9
25 7 4
25 8 2
25 9 3
25 10 2
25 11 5
25 12 3
25 13 7
25 14 5
25 15 8
25 16 4
25 17 4
25 18 7
25 19 4
25 20 2
25 21 2
25 22 5
25 23 1
25 24 5
26 0 2
26 1 7
26 2 5
26 3 4
26 4 4
26 5 3
26 6 9
26 7 6
26 8 5
26 9 5
26 10 6
26 11 5
26 12 9
26 13 7
26 14 3
26 15 8
26 16 3
26 17 3
26 18 10
26 19 10
26 20 6
26 21 6
26 22 5
26 23 5
26 24 3
26 25 4
27 0 2
27 1 3
27 2 10
27 3 4
27 4 5
27 5 5
27 6 3
27 7 6
27 8 7
27 9 10
27 10 8
27 11 8
27 12 6
27 13 9
27 14 9
27 15 1
27 16 1
27 17 9
27 18 4
27 19 8
27 20 2
27 21 10
27 22 6
27 23 5
27 24 1
27 25 5
27 26 1
28 0 10
28 1 9
28 2 8
28 3 4
28 4 6
28 5 7
28 6 7
28 7 8
28 8 9
28 9 7
28 10 2
28 11 6
28 12 6
28 13 4
28 14 7
28 15 5
28 16 7
28 17 10
28 18 1
28 19 1
28 20 1
28 21 1
28 22 5
28 23 8
28 24 5
28 25 9
28 26 5
28 27 8
29 0 2
29 1 5
29 2 3
29 3 10
29 4 8
29 5 9
29 6 6
29 7 1
29 8 1
29 9 7
29 10 6
29 11 6
29 12 1
29 13 9
29 14 9
29 15 9
29 16 9
29 17 8
29 18 4
29 19 3
29 20 10
29 21 9
29 22 9
29 23 7
29 24 2
29 25 3
29 26 6
29 27 1
29 28 10
30 0 10
30 1 2
30 2 2
30 3 1
30 4 6
30 5 8
30 6 8
30 7 3
30 8 10
30 9 4
30 10 10
30 11 6
30 12 1
30 13 5
30 14 2
30 15 10
30 16 3
30 17 6
30 18 2
30 19 3
30 20 6
30 21 2
30 22 8
30 23 7
30 24 6
30 25 4
30 26 10
30 27 5
30 28 7
30 29 9
31 0 7
31 1 4
31 2 5
31 3 7
31 4 9
31 5 1
31 6 8
31 7 8
31 8 5
31 9 5
31 10 3
31 11 8
31 12 7
31 13 4
31 14 5
31 15 9
31 16 5
31 17 3
31 18 5
31 19 4
31 20 1
31 21 10
31 22 6
31 23 4
31 24 2
31 25 2
31 26 3
31 27 3
31 28 6
31 29 8
31 30 7
32 0 7
32 1 5
32 2 4
32 3 6
32 4 2
32 5 1
32 6 8
32 7 1
32 8 6
32 9 7
32 10 6
32 11 10
32 12 9
32 13 3
32 14 8
32 15 8
32 16 6
32 17 2
32 18 7
32 19 4
32 20 1
32 21 7
32 22 7
32 23 5
32 24 9
32 25 7
32 26 10
32 27 10
32 28 9
32 29 7
32 30 5
32 31 3
33 0 8
33 1 1
33 2 5
33 3 10
33 4 10
33 5 10
33 6 5
33 7 1
33 8 4
33 9 3
33 10 9
33 11 2
33 12 2
33 13 9
33 14 2
33 15 6
33 16 9
33 17 5
33 18 3
33 19 7
33 20 1
33 21 7
33 22 3
33 23 4
33 24 1
33 25 2
33 26 7
33 27 10
33 28 4
33 29 7
33 30 1
33 31 3
33 32 10
34 0 8
34 1 3
34 2 1
34 3 1
34 4 3
34 5 10
34 6 3
34 7 6
34 8 10
34 9 6
34 10 2
34 11 2
34 12 9
34 13 2
34 14 5
34 15 10
34 16 8
34 17 3
34 18 6
34 19 8
34 20 10
34 21 5
34 22 7
34 23 4
34 24 3
34 25 2
34 26 8
34 27 1
34 28 1
34 29 2
34 30 4
34 31 10
34 32 10
34 33 5
35 0 2
35 1 9
35 2 2
35 3 7
35 4 2
35 5 2
35 6 9
35 7 8
35 8 8
35 9 6
35 10 7
35 11 9
35 12 9
35 13 3
35 14 1
35 15 4
35 16 2
35 17 2
35 18 3
35 19 10
35 20 4
35 21 1
35 22 3
35 23 5
35 24 3
35 25 2
35 26 8
35 27 4
35 28 5
35 29 5
35 30 1
35 31 10
35 32 4
35 33 9
35 34 3
36 0 4
36 1 2
36 2 1
36 3 5
36 4 8
36 5 2
36 6 9
36 7 5
36 8 9
36 9 4
36 10 9
36 11 10
36 12 3
36 13 9
36 14 10
36 15 6
36 16 2
36 17 10
36 18 4
36 19 7
36 20 6
36 21 9
36 22 6
36 23 10
36 24 9
36 25 6
36 26 5
36 27 9
36 28 4
36 29 1
36 30 4
36 31 3
36 32 10
36 33 1
36 34 1
36 35 7
37 0 7
37 1 1
37 2 9
37 3 6
37 4 7
37 5 10
37 6 4
37 7 2
37 8 10
37 9 10
37 10 8
37 11 3
37 12 7
37 13 2
37 14 10
37 15 8
37 16 9
37 17 1
37 18 3
37 19 10
37 20 5
37 21 9
37 22 7
37 23 5
37 24 9
37 25 8
37 26 1
37 27 7
37 28 1
37 29 1
37 30 10
37 31 4
37 32 7
37 33 4
37 34 5
37 35 5
37 36 2
38 0 1
38 1 10
38 2 1
38 3 8
38 4 4
38 5 9
38 6 3
38 7 6
38 8 2
38 9 1
38 10 5
38 11 8
38 12 10
38 13 3
38 14 4
38 15 5
38 16 7
38 17 10
38 18 6
38 19 3
38 20 7
38 21 6
38 22 1
38 23 6
38 24 1
38 25 2
38 26 2
38 27 9
38 28 7
38 29 5
38 30 4
38 31 9
38 32 8
38 33 1
38 34 5
38 35 9
38 36 4
38 37 1
39 0 3
39 1 2
39 2 10
39 3 2
39 4 10
39 5 8
39 6 7
39 7 10
39 8 2
39 9 2
39 10 4
39 11 3
39 12 8
39 13 5
39 14 2
39 15 3
39 16 3
39 17 6
39 18 7
39 19 10
39 20 8
39 21 1
39 22 9
39 23 5
39 24 4
39 25 1
39 26 10
39 27 9
39 28 5
39 29 10
39 30 10
39 31 10
39 32 7
39 33 5
39 34 3
39 35 8
39 36 2
39 37 4
39 38 7
40 0 1
40 1 3
40 2 8
40 3 7
40 4 4
40 5 3
40 6 5
40 7 10
40 8 10
40 9 6
40 10 7
40 11 2
40 12 7
40 13 9
40 14 5
40 15 9
40 16 10
40 17 10
40 18 8
40 19 2
40 20 10
40 21 5
40 22 1
40 23 10
40 24 1
40 25 8
40 26 3
40 27 9
40 28 1
40 29 8
40 30 5
40 31 9
40 32 2
40 33 10
40 34 9
40 35 1
40 36 10
40 37 7
40 38 5
40 39 1
41 0 5
41 1 10
41 2 10
41 3 3
41 4 1
41 5 9
41 6 9
41 7 5
41 8 3
41 9 1
41 10 10
41 11 5
41 12 4
41 13 7
41 14 8
41 15 3
41 16 2
41 17 4
41 18 2
41 19 5
41 20 4
41 21 2
41 22 7
41 23 6
41 24 1
41 25 9
41 26 1
41 27 2
41 28 2
41 29 6
41 30 2
41 31 1
41 32 2
41 33 10
41 34 2
41 35 5
41 36 9
41 37 4
41 38 10
41 39 7
41 40 7
42 0 10
42 1 9
42 2 10
42 3 6
42 4 1
42 5 3
42 6 7
42 7 1
42 8 3
42 9 10
42 10 3
42 11 4
42 12 2
42 13 9
42 14 8
42 15 3
42 16 4
42 17 9
42 18 2
42 19 4
42 20 1
42 21 6
42 22 5
42 23 9
42 24 1
42 25 4
42 26 10
42 27 9
42 28 7
42 29 5
42 30 4
42 31 10
42 32 8
42 33 1
42 34 1
42 35 7
42 36 5
42 37 10
42 38 6
42 39 2
42 40 9
42 41 7
43 0 8
43 1 9
43 2 6
43 3 1
43 4 4
43 5 6
43 6 3
43 7 1
43 8 5
43 9 4
43 10 6
43 11 9
43 12 3
43 13 4
43 14 9
43 15 3
43 16 5
43 17 1
43 18 10
43 19 1
43 20 6
43 21 1
43 22 2
43 23 5
43 24 9
43 25 9
43 26 9
43 27 1
43 28 7
43 29 3
43 30 2
43 31 7
43 32 4
43 33 4
43 34 7
43 35 2
43 36 2
43 37 5
43 38 10
43 39 5
43 40 4
43 41 9
43 42 4
44 0 7
44 1 10
44 2 10
44 3 1
44 4 9
44 5 1
44 6 8
44 7 5
44 8 1
44 9 2
44 10 8
44 11 1
44 12 7
44 13 3
44 14 1
44 15 7
44 16 1
44 17 3
44 18 10
44 19 9
44 20 7
44 21 8
44 22 9
44 23 2
44 24 2
44 25 2
44 26 7
44 27 10
44 28 6
44 29 7
44 30 3
44 31 6
44 32 9
44 33 8
44 34 5
44 35 8
44 36 6
44 37 1
44 38 7
44 39 5
44 40 9
44 41 2
44 42 1
44 43 6
45 0 1
45 1 8
45 2 6
45 3 4
45 4 9
45 5 6
45 6 8
45 7 8
45 8 6
45 9 10
45 10 4
45 11 7
45 12 3
45 13 8
45 14 6
45 15 10
45 16 3
45 17 5
45 18 10
45 19 2
45 20 6
45 21 7
45 22 5
45 23 6
45 24 5
45 25 4
45 26 4
45 27 5
45 28 7
45 29 2
45 30 6
45 31 9
45 32 2
45 33 3
45 34 10
45 35 2
45 36 10
45 37 5
45 38 2
45 39 7
45 40 6
45 41 8
45 42 8
45 43 6
45 44 4
46 0 8
46 1 1
46 2 3
46 3 7
46 4 7
46 5 7
46 6 5
46 7 2
46 8 8
46 9 2
46 10 8
46 11 1
46 12 5
46 13 2
46 14 4
46 15 4
46 16 3
46 17 1
46 18 7
46 19 3
46 20 5
46 21 3
46 22 3
46 23 2
46 24 2
46 25 8
46 26 6
46 27 3
46 28 5
46 29 3
46 30 2
46 31 5
46 32 5
46 33 2
46 34 3
46 35 2
46 36 6
46 37 2
46 38 9
46 39 5
46 40 3
46 41 3
46 42 5
46 43 10
46 44 9
46 45 3
47 0 10
47 1 9
47 2 3
47 3 2
47 4 5
47 5 1
47 6 8
47 7 2
47 8 4
47 9 6
47 10 10
47 11 8
47 12 10
47 13 4
47 14 4
47 15 1
47 16 2
47 17 9
47 18 1
47 19 4
47 20 7
47 21 9
47 22 10
47 23 10
47 24 5
47 25 2
47 26 8
47 27 2
47 28 8
47 29 5
47 30 6
47 31 1
47 32 4
47 33 10
47 34 8
47 35 6
47 36 4
47 37 6
47 38 8
47 39 1
47 40 4
47 41 9
47 42 6
47 43 7
47 44 8
47 45 7
47 46 9
48 0 1
48 1 4
48 2 4
48 3 9
48 4 1
48 5 4
48 6 6
48 7 10
48 8 9
48 9 9
48 10 5
48 11 2
48 12 8
48 13 9
48 14 3
48 15 2
48 16 3
48 17 1
48 18 1
48 19 4
48 20 6
48 21 4
48 22 7
48 23 9
48 24 4
48 25 4
48 26 4
48 27 5
48 28 6
48 29 9
48 30 7
48 31 4
48 32 8
48 33 2
48 34 1
48 35 8
48 36 4
48 37 8
48 38 10
48 39 9
48 40 8
48 41 3
48 42 9
48 43 1
48 44 5
48 45 3
48 46 3
48 47 2
49 0 1
49 1 2
49 2 5
49 3 9
49 4 9
49 5 7
49 6 5
49 7 4
49 8 8
49 9 9
49 10 3
49 11 4
49 12 5
49 13 8
49 14 5
49 15 8
49 16 4
49 17 7
49 18 3
49 19 5
49 20 2
49 21 2
49 22 8
49 23 4
49 24 3
49 25 2
49 26 9
49 27 10
49 28 4
49 29 1
49 30 10
49 31 9
49 32 1
49 33 3
49 34 5
49 35 6
49 36 2
49 37 7
49 38 6
49 39 4
49 40 10
49 41 8
49 42 4
49 43 4
49 44 5
49 45 2
49 46 9
49 47 6
49 48 9
50 0 7
50 1 5
50 2 8
50 3 9
50 4 3
50 5 10
50 6 5
50 7 2
50 8 9
50 9 2
50 10 2
50 11 3
50 12 7
50 13 2
50 14 8
50 15 9
50 16 4
50 17 7
50 18 9
50 19 3
50 20 2
50 21 9
50 22 2
50 23 1
50 24 8
50 25 10
50 26 3
50 27 6
50 28 8
50 29 9
50 30 6
50 31 7
50 32 9
50 33 9
50 34 10
50 35 8
50 36 3
50 37 9
50 38 5
50 39 7
50 40 1
50 41 10
50 42 2
50 43 10
50 44 6
50 45 9
50 46 5
50 47 7
50 48 8
50 49 9
51 0 2
51 1 8
51 2 5
51 3 3
51 4 4
51 5 10
51 6 2
51 7 6
51 8 2
51 9 2
51 10 8
51 11 2
51 12 10
51 13 2
51 14 2
51 15 4
51 16 4
51 17 9
51 18 10
51 19 2
51 20 8
51 21 1
51 22 8
51 23 2
51 24 7
51 25 3
51 26 10
51 27 7
51 28 1
51 29 2
51 30 7
51 31 6
51 32 5
51 33 7
51 34 6
51 35 3
51 36 10
51 37 2
51 38 5
51 39 10
51 40 4
51 41 2
51 42 10
51 43 1
51 44 2
51 45 3
51 46 9
51 47 5
51 48 8
51 49 8
51 50 9
52 0 6
52 1 4
52 2 3
52 3 6
52 4 4
52 5 8
52 6 5
52 7 2
52 8 4
52 9 2
52 10 9
52 11 1
52 12 9
52 13 8
52 14 6
52 15 6
52 16 4
52 17 5
52 18 10
52 19 3
52 20 6
52 21 8
52 22 9
52 23 5
52 24 10
52 25 5
52 26 4
52 27 4
52 28 10
52 29 4
52 30 8
52 31 7
52 32 3
52 33 1
52 34 3
52 35 7
52 36 10
52 37 2
52 38 1
52 39 8
52 40 10
52 41 3
52 42 10
52 43 9
52 44 7
52 45 1
52 46 4
52 47 3
52 48 5
52 49 5
52 50 10
52 51 4
53 0 7
53 1 10
53 2 5
53 3 6
53 4 4
53 5 10
53 6 6
53 7 1
53 8 6
53 9 3
53 10 10
53 11 8
53 12 7
53 13 4
53 14 4
53 15 5
53 16 6
53 17 2
53 18 3
53 19 8
53 20 1
53 21 4
53 22 9
53 23 3
53 24 9
53 25 9
53 26 10
53 27 7
53 28 6
53 29 10
53 30 7
53 31 1
53 32 3
53 33 3
53 34 2
53 35 2
53 36 9
53 37 5
53 38 8
53 39 6
53 40 6
53 41 2
53 42 7
53 43 3
53 44 2
53 45 9
53 46 4
53 47 10
53 48 10
53 49 2
53 50 9
53 51 6
53 52 6
54 0 9
54 1 10
54 2 8
54 3 6
54 4 9
54 5 10
54 6 5
54 7 2
54 8 5
54 9 3
54 10 4
54 11 7
54 12 9
54 13 10
54 14 7
54 15 5
54 16 1
54 17 1
54 18 9
54 19 5
54 20 9
54 21 5
54 22 3
54 23 6
54 24 1
54 25 10
54 26 7
54 27 3
54 28 5
54 29 9
54 30 6
54 31 3
54 32 1
54 33 5
54 34 3
54 35 9
54 36 4
54 37 2
54 38 5
54 39 5
54 40 5
54 41 1
54 42 7
54 43 10
54 44 3
54 45 3
54 46 5
54 47 9
54 48 2
54 49 7
54 50 8
54 51 6
54 52 3
54 53 2
55 0 10
55 1 1
55 2 2
55 3 5
55 4 3
55 5 3
55 6 6
55 7 10
55 8 7
55 9 7
55 10 7
55 11 5
55 12 2
55 13 9
55 14 6
55 15 5
55 16 3
55 17 4
55 18 9
55 19 4
55 20 9
55 21 1
55 22 1
55 23 7
55 24 5
55 25 1
55 26 4
55 27 1
55 28 4
55 29 8
55 30 8
55 31 2
55 32 5
55 33 6
55 34 4
55 35 3
55 36 10
55 37 4
55 38 4
55 39 3
55 40 10
55 41 5
55 42 1
55 43 2
55 44 10
55 45 7
55 46 5
55 47 3
55 48 3
55 49 8
55 50 1
55 51 1
55 52 3
55 53 2
55 54 4
56 0 8
56 1 3
56 2 6
56 3 1
56 4 3
56 5 9
56 6 2
56 7 9
56 8 8
56 9 8
56 10 6
56 11 8
56 12 8
56 13 7
56 14 8
56 15 1
56 16 10
56 17 8
56 18 4
56 19 1
56 20 3
56 21 9
56 22 7
56 23 9
56 24 3
56 25 7
56 26 7
56 27 4
56 28 3
56 29 1
56 30 3
56 31 9
56 32 2
56 33 1
56 34 2
56 35 3
56 36 10
56 37 5
56 38 6
56 39 3
56 40 8
56 41 9
56 42 6
56 43 2
56 44 2
56 45 9
56 46 6
56 47 9
56 48 3
56 49 6
56 50 6
56 51 4
56 52 9
56 53 3
56 54 9
56 55 2
57 0 2
57 1 2
57 2 4
57 3 6
57 4 10
57 5 4
57 6 10
57 7 10
57 8 9
57 9 1
57 10 4
57 11 8
57 12 4
57 13 6
57 14 5
57 15 6
57 16 3
57 17 10
57 18 3
57 19 3
57 20 4
57 21 5
57 22 6
57 23 5
57 24 7
57 25 5
57 26 7
57 27 7
57 28 8
57 29 8
57 30 4
57 31 9
57 32 3
57 33 4
57 34 4
57 35 7
57 36 9
57 37 9
57 38 2
57 39 10
57 40 6
57 41 5
57 42 7
57 43 6
57 44 3
57 45 7
57 46 5
57 47 4
57 48 4
57 49 7
57 50 6
57 51 8
57 52 7
57 53 1
57 54 2
57 55 8
57 56 6
58 0 2
58 1 1
58 2 7
58 3 3
58 4 4
58 5 6
58 6 10
58 7 9
58 8 5
58 9 9
58 10 9
58 11 5
58 12 3
58 13 6
58 14 2
58 15 4
58 16 7
58 17 4
58 18 9
58 19 8
58 20 1
58 21 9
58 22 4
58 23 6
58 24 8
58 25 6
58 26 9
58 27 5
58 28 7
58 29 8
58 30 8
58 31 3
58 32 2
58 33 8
58 34 4
58 35 1
58 36 7
58 37 3
58 38 4
58 39 6
58 40 2
58 41 10
58 42 7
58 43 5
58 44 8
58 45 6
58 46 2
58 47 4
58 48 7
58 49 10
58 50 2
58 51 1
58 52 6
58 53 6
58 54 3
58 55 7
58 56 5
58 57 1
59 0 9
59 1 7
59 2 9
59 3 1
59 4 5
59 5 5
59 6 9
59 7 9
59 8 4
59 9 5
59 10 1
59 11 9
59 12 6
59 13 1
59 14 10
59 15 4
59 16 9
59 17 1
59 18 9
59 19 8
59 20 9
59 21 5
59 22 6
59 23 3
59 24 3
59 25 1
59 26 9
59 27 5
59 28 6
59 29 5
59 30 8
59 31 6
59 32 8
59 33 9
59 34 6
59 35 8
59 36 8
59 37 10
59 38 9
59 39 5
59 40 7
59 41 4
59 42 7
59 43 3
59 44 1
59 45 7
59 46 3
59 47 9
59 48 1
59 49 5
59 50 10
59 51 4
59 52 9
59 53 8
59 54 7
59 55 5
59 56 1
59 57 9
59 58 2
60 0 5
60 1 10
60 2 3
60 3 7
60 4 6
60 5 3
60 6 2
60 7 7
60 8 6
60 9 8
60 10 1
60 11 9
60 12 1
60 13 1
60 14 1
60 15 7
60 16 4
60 17 6
60 18 4
60 19 5
60 20 6
60 21 6
60 22 8
60 23 10
60 24 5
60 25 1
60 26 8
60 27 6
60 28 4
60 29 9
60 30 7
60 31 7
60 32 6
60 33 2
60 34 4
60 35 4
60 36 2
60 37 8
60 38 8
60 39 8
60 40 10
60 41 6
60 42 6
60 43 3
60 44 5
60 45 2
60 46 4
60 47 5
60 48 3
60 49 2
60 50 7
60 51 2
60 52 9
60 53 7
60 54 6
60 55 2
60 56 1
60 57 5
60 58 3
60 59 4
61 0 8
61 1 3
61 2 2
61 3 8
61 4 2
61 5 4
61 6 2
61 7 2
61 8 2
61 9 9
61 10 9
61 11 7
61 12 10
61 13 1
61 14 4
61 15 7
61 16 4
61 17 10
61 18 6
61 19 10
61 20 7
61 21 1
61 22 4
61 23 5
61 24 5
61 25 8
61 26 6
61 27 6
61 28 2
61 29 1
61 30 6
61 31 10
61 32 9
61 33 7
61 34 7
61 35 4
61 36 2
61 37 4
61 38 4
61 39 2
61 40 3
61 41 3
61 42 9
61 43 4
61 44 10
61 45 3
61 46 9
61 47 8
61 48 8
61 49 2
61 50 2
61 51 3
61 52 4
61 53 6
61 54 9
61 55 9
61 56 2
61 57 3
61 58 4
61 59 9
61 60 1
62 0 10
62 1 1
62 2 8
62 3 5
62 4 2
62 5 1
62 6 9
62 7 2
62 8 5
62 9 1
62 10 6
62 11 10
62 12 1
62 13 6
62 14 1
62 15 7
62 16 4
62 17 10
62 18 10
62 19 9
62 20 3
62 21 7
62 22 4
62 23 10
62 24 2
62 25 4
62 26 6
62 27 2
62 28 4
62 29 9
62 30 8
62 31 5
62 32 5
62 33 8
62 34 5
62 35 4
62 36 10
62 37 3
62 38 4
62 39 5
62 40 9
62 41 10
62 42 8
62 43 2
62 44 7
62 45 3
62 46 8
62 47 1
62 48 10
62 49 3
62 50 7
62 51 9
62 52 10
62 53 6
62 54 10
62 55 1
62 56 9
62 57 10
62 58 5
62 59 8
62 60 6
62 61 2
63 0 1
63 1 8
63 2 5
63 3 8
63 4 7
63 5 7
63 6 10
63 7 9
63 8 2
63 9 5
63 10 9
63 11 4
63 12 9
63 13 8
63 14 4
63 15 10
63 16 10
63 17 4
63 18 2
63 19 3
63 20 6
63 21 1
63 22 10
63 23 9
63 24 8
63 25 10
63 26 3
63 27 8
63 28 9
63 29 5
63 30 2
63 31 1
63 32 10
63 33 7
63 34 5
63 35 4
63 36 5
63 37 3
63 38 10
63 39 2
63 40 2
63 41 7
63 42 9
63 43 8
63 44 1
63 45 5
63 46 10
63 47 7
63 48 10
63 49 4
63 50 9
63 51 8
63 52 7
63 53 4
63 54 6
63 55 1
63 56 6
63 57 1
63 58 4
63 59 2
63 60 8
63 61 1
63 62 3
64 0 9
64 1 8
64 2 3
64 3 6
64 4 6
64 5 10
64 6 5
64 7 5
64 8 3
64 9 8
64 10 7
64 11 6
64 12 2
64 13 8
64 14 2
64 15 6
64 16 9
64 17 2
64 18 7
64 19 6
64 20 5
64 21 6
64 22 10
64 23 2
64 24 2
64 25 6
64 26 5
64 27 8
64 28 8
64 29 6
64 30 7
64 31 3
64 32 9
64 33 6
64 34 2
64 35 10
64 36 4
64 37 5
64 38 6
64 39 1
64 40 2
64 41 7
64 42 9
64 43 1
64 44 4
64 45 9
64 46 9
64 47 1
64 48 9
64 49 2
64 50 5
64 51 2
64 52 5
64 53 6
64 54 8
64 55 2
64 56 4
64 57 2
64 58 1
64 59 2
64 60 9
64 61 4
64 62 1
64 63 3
65 0 2
65 1 2
65 2 6
65 3 9
65 4 10
65 5 5
65 6 1
65 7 9
65 8 3
65 9 1
65 10 7
65 11 2
65 12 10
65 13 6
65 14 5
65 15 8
65 16 8
65 17 8
65 18 3
65 19 4
65 20 6
65 21 5
65 22 8
65 23 5
65 24 3
65 25 7
65 26 9
65 27 4
65 28 4
65 29 7
65 30 8
65 31 3
65 32 3
65 33 2
65 34 7
65 35 9
65 36 10
65 37 8
65 38 2
65 39 10
65 40 9
65 41 9
65 42 10
65 43 4
65 44 6
65 45 1
65 46 8
65 47 3
65 48 6
65 49 1
65 50 5
65 51 3
65 52 1
65 53 6
65 54 6
65 55 4
65 56 2
65 57 9
65 58 4
65 59 9
65 60 1
65 61 9
65 62 2
65 63 3
65 64 6
66 0 4
66 1 5
66 2 7
66 3 5
66 4 9
66 5 9
66 6 2
66 7 1
66 8 7
66 9 10
66 10 2
66 11 1
66 12 1
66 13 9
66 14 1
66 15 4
66 16 3
66 17 10
66 18 6
66 19 1
66 20 8
66 21 3
66 22 7
66 23 3
66 24 7
66 25 1
66 26 1
66 27 7
66 28 10
66 29 9
66 30 3
66 31 3
66 32 7
66 33 5
66 34 9
66 35 1
66 36 10
66 37 3
66 38 1
66 39 5
66 40 3
66 41 3
66 42 2
66 43 5
66 44 8
66 45 5
66 46 2
66 47 5
66 48 9
66 49 2
66 50 5
66 51 10
66 52 7
66 53 10
66 54 1
66 55 4
66 56 9
66 57 3
66 58 8
66 59 10
66 60 6
66 61 6
66 62 10
66 63 9
66 64 3
66 65 10
67 0 4
67 1 3
67 2 1
67 3 5
67 4 1
67 5 5
67 6 6
67 7 5
67 8 3
67 9 5
67 10 10
67 11 5
67 12 3
67 13 1
67 14 5
67 15 10
67 16 10
67 17 8
67 18 2
67 19 7
67 20 2
67 21 9
67 22 5
67 23 2
67 24 9
67 25 4
67 26 1
67 27 4
67 28 1
67 29 2
67 30 9
67 31 1
67 32 3
67 33 8
67 34 2
67 35 1
67 36 5
67 37 2
67 38 4
67 39 8
67 40 6
67 41 2
67 42 2
67 43 8
67 44 5
67 45 2
67 46 9
67 47 10
67 48 2
67 49 4
67 50 8
67 51 4
67 52 7
67 53 9
67 54 1
67 55 4
67 56 10
67 57 4
67 58 6
67 59 9
67 60 2
67 61 1
67 62 10
67 63 4
67 64 6
67 65 1
67 66 6
68 0 8
68 1 8
68 2 3
68 3 7
68 4 6
68 5 10
68 6 7
68 7 1
68 8 9
68 9 10
68 10 3
68 11 10
68 12 2
68 13 1
68 14 6
68 15 7
68 16 6
68 17 6
68 18 5
68 19 7
68 20 6
68 21 1
68 22 3
68 23 5
68 24 3
68 25 6
68 26 5
68 27 9
68 28 3
68 29 4
68 30 2
68 31 9
68 32 3
68 33 9
68 34 1
68 35 5
68 36 4
68 37 8
68 38 8
68 39 4
68 40 7
68 41 2
68 42 4
68 43 1
68 44 10
68 45 10
68 46 4
68 47 2
68 48 10
68 49 10
68 50 7
68 51 9
68 52 4
68 53 2
68 54 2
68 55 1
68 56 1
68 57 7
68 58 7
68 59 8
68 60 2
68 61 4
68 62 3
68 63 3
68 64 6
68 65 1
68 66 8
68 67 8
69 0 2
69 1 6
69 2 8
69 3 1
69 4 8
69 5 3
69 6 7
69 7 2
69 8 8
69 9 7
69 10 8
69 11 5
69 12 9
69 13 10
69 14 9
69 15 4
69 16 7
69 17 1
69 18 10
69 19 5
69 20 1
69 21 6
69 22 9
69 23 10
69 24 5
69 25 4
69 26 4
69 27 3
69 28 2
69 29 3
69 30 9
69 31 4
69 32 3
69 33 6
69 34 9
69 35 8
69 36 5
69 37 8
69 38 4
69 39 8
69 40 7
69 41 4
69 42 6
69 43 1
69 44 7
69 45 10
69 46 9
69 47 5
69 48 5
69 49 8
69 50 9
69 51 8
69 52 10
69 53 1
69 54 6
69 55 2
69 56 8
69 57 2
69 58 2
69 59 6
69 60 1
69 61 4
69 62 7
69 63 4
69 64 7
69 65 5
69 66 8
69 67 3
69 68 4
70 0 3
70 1 5
70 2 5
70 3 1
70 4 2
70 5 9
70 6 10
70 7 2
70 8 6
70 9 7
70 10 10
70 11 5
70 12 5
70 13 1
70 14 3
70 15 1
70 16 10
70 17 3
70 18 5
70 19 2
70 20 1
70 21 4
70 22 7
70 23 10
70 24 1
70 25 3
70 26 9
70 27 3
70 28 2
70 29 8
70 30 7
70 31 10
70 32 5
70 33 10
70 34 7
70 35 4
70 36 10
70 37 6
70 38 5
70 39 7
70 40 3
70 41 4
70 42 10
70 43 8
70 44 9
70 45 4
70 46 7
70 47 8
70 48 2
70 49 9
70 50 6
70 51 3
70 52 5
70 53 5
70 54 3
70 55 6
70 56 10
70 57 9
70 58 6
70 59 10
70 60 1
70 61 10
70 62 6
70 63 1
70 64 8
70 65 10
70 66 2
70 67 5
70 68 7
70 69 7
71 0 8
71 1 3
71 2 6
71 3 8
71 4 8
71 5 7
71 6 2
71 7 10
71 8 9
71 9 6
71 10 7
71 11 8
71 12 9
71 13 4
71 14 1
71 15 6
71 16 2
71 17 4
71 18 3
71 19 8
71 20 6
71 21 5
71 22 3
71 23 3
71 24 7
71 25 9
71 26 3
71 27 2
71 28 9
71 29 9
71 30 5
71 31 8
71 32 10
71 33 9
71 34 5
71 35 7
71 36 7
71 37 9
71 38 3
71 39 9
71 40 9
71 41 3
71 42 8
71 43 1
71 44 9
71 45 6
71 46 5
71 47 7
71 48 9
71 49 4
71 50 5
71 51 7
71 52 8
71 53 3
71 54 6
71 55 6
71 56 2
71 57 6
71 58 4
71 59 5
71 60 4
71 61 6
71 62 7
71 63 1
71 64 9
71 65 5
71 66 6
71 67 10
71 68 4
71 69 8
71 70 1
72 0 9
72 1 2
72 2 1
72 3 5
72 4 7
72 5 10
72 6 3
72 7 9
72 8 7
72 9 2
72 10 8
72 11 5
72 12 6
72 13 7
72 14 9
72 15 8
72 16 1
72 17 4
72 18 6
72 19 10
72 20 8
72 21 9
72 22 6
72 23 5
72 24 10
72 25 8
72 26 1
72 27 10
72 28 10
72 29 9
72 30 6
72 31 4
72 32 10
72 33 2
72 34 8
72 35 5
72 36 5
72 37 9
72 38 8
72 39 2
72 40 1
72 41 9
72 42 3
72 43 1
72 44 6
72 45 4
72 46 6
72 47 10
72 48 3
72 49 3
72 50 8
72 51 1
72 52 3
72 53 3
72 54 9
72 55 4
72 56 5
72 57 1
72 58 4
72 59 6
72 60 3
72 61 10
72 62 1
72 63 4
72 64 1
72 65 7
72 66 10
72 67 3
72 68 5
72 69 6
72 70 7
72 71 9
73 0 3
73 1 6
73 2 2
73 3 1
73 4 9
73 5 4
73 6 4
73 7 4
73 8 2
73 9 4
73 10 6
73 11 2
73 12 7
73 13 6
73 14 6
73 15 10
73 16 1
73 17 10
73 18 1
73 19 4
73 20 5
73 21 9
73 22 7
73 23 5
73 24 7
73 25 6
73 26 1
73 27 2
73 28 1
73 29 8
73 30 4
73 31 4
73 32 4
73 33 9
73 34 9
73 35 10
73 36 5
73 37 3
73 38 1
73 39 6
73 40 6
73 41 4
73 42 1
73 43 2
73 44 5
73 45 9
73 46 1
73 47 5
73 48 5
73 49 9
73 50 1
73 51 2
73 52 6
73 53 2
73 54 6
73 55 5
73 56 5
73 57 1
73 58 9
73 59 10
73 60 9
73 61 7
73 62 6
73 63 2
73 64 1
73 65 7
73 66 4
73 67 7
73 68 7
73 69 5
73 70 8
73 71 10
73 72 7
74 0 6
74 1 5
74 2 1
74 3 7
74 4 4
74 5 4
74 6 6
74 7 8
74 8 4
74 9 7
74 10 5
74 11 9
74 12 1
74 13 5
74 14 2
74 15 3
74 16 3
74 17 8
74 18 5
74 19 4
74 20 5
74 21 1
74 22 10
74 23 1
74 24 2
74 25 3
74 26 6
74 27 7
74 28 7
74 29 7
74 30 4
74 31 3
74 32 7
74 33 9
74 34 2
74 35 3
74 36 10
74 37 1
74 38 2
74 39 8
74 40 7
74 41 3
74 42 9
74 43 3
74 44 4
74 45 8
74 46 10
74 47 2
74 48 7
74 49 2
74 50 2
74 51 7
74 52 4
74 53 4
74 54 7
74 55 7
74 56 3
74 57 9
74 58 3
74 59 7
74 60 7
74 61 2
74 62 8
74 63 7
74 64 7
74 65 7
74 66 6
74 67 5
74 68 9
74 69 5
74 70 4
74 71 2
74 72 4
74 73 3
